problems/csplib-prob056/sonet-models/noch/O2/lingeling/model_8_1-s3ring09-solution000001.solution
language Essence 1.3

letting network be mset({}, {}, {1, 2, 8, 11, 13}, {1, 3, 4, 10, 12}, {2, 5, 6, 7, 12}, {3, 6, 8, 13}, {3, 9, 11})
$ Here is a simple "visualisation" for the value above.
$ 
$ 
$  1  2  8 11 13
$  1  3  4 10 12
$  2  5  6  7 12
$  3  6  8 13
$  3  9 11

